Traveling Salesman Problem/TSP_generados/Aleatorio1621105309_19.tsp
NAME: Aleatorio1621105309_19.tsp
COMMENT: Randomly generated scenario
TYPE: TSP
DIMENSION: 19
EDGE_WEIGHT_TYPE: ATT
NODE_COORD_SECTION
1 5.3 37.97
2 38.26 22.86
3 27.96 7.16
4 47.14 11.98
5 28.64 24.45
6 0.69 39.33
7 11.47 9.76
8 3.56 35.86
9 30.0 27.91
10 7.83 41.74
11 36.68 10.43
12 28.86 43.51
13 43.77 11.88
14 36.3 1.17
15 10.08 12.92
16 40.48 24.12
17 24.9 23.09
18 15.06 5.35
19 10.04 31.52
