Traveling Salesman Problem/TSP_generados/Aleatorio1621105309_19.opt.tour
NAME: Aleatorio1621105309_19.opt.tour
COMMENT: Optimal solution for Aleatorio1621105309_19 (166.45102511483103)
TYPE: TOUR
DIMENSION: 19
TOUR_SECTION
1 6 8 19 15 7 18 3 14 11 13 4 16 2 5 17 9 12 10
-1
EOF
